CPXPARAM_TimeLimit                               3600
CPXPARAM_Read_DataCheck                          1
Tried aggregator 1 time.
MIP Presolve eliminated 2487 rows and 0 columns.
MIP Presolve modified 4299 coefficients.
Reduced MIP has 169393 rows, 54451 columns, and 612086 nonzeros.
Reduced MIP has 2850 binaries, 0 generals, 0 SOSs, and 0 indicators.
Presolve time = 0.15 sec. (225.59 ticks)
Found incumbent of value 11121.000000 after 0.28 sec. (386.14 ticks)
Probing fixed 0 vars, tightened 2 bounds.
Probing time = 0.05 sec. (29.88 ticks)
Tried aggregator 1 time.
Reduced MIP has 169393 rows, 54451 columns, and 612086 nonzeros.
Reduced MIP has 2850 binaries, 0 generals, 0 SOSs, and 0 indicators.
Presolve time = 0.32 sec. (305.16 ticks)
Probing time = 0.04 sec. (24.97 ticks)
MIP emphasis: balance optimality and feasibility.
MIP search method: dynamic search.
Parallel mode: deterministic, using up to 8 threads.
Root relaxation solution time = 307.64 sec. (66392.36 ticks)

        Nodes                                         Cuts/
   Node  Left     Objective  IInf  Best Integer    Best Bound    ItCnt     Gap

*     0+    0                        11121.0000     1008.0000            90.94%
*     0+    0                        10938.0000     1008.0000            90.78%
      0     0     1008.0000  2484    10938.0000     1008.0000    78463   90.78%
      0     0     1014.4328  2566    10938.0000    Cuts: 4028   116165   90.73%
      0     0     1023.6750  2622    10938.0000    Cuts: 2815   165100   90.64%
      0     0     1024.2842  2620    10938.0000    Cuts: 1962   233658   90.64%
      0     0     1030.4632  2662    10938.0000    Cuts: 2517   393960   90.58%

Implied bound cuts applied:  266
Flow cuts applied:  371
Mixed integer rounding cuts applied:  1975

Root node processing (before b&c):
  Real time             = 3600.05 sec. (2243606.29 ticks)
Parallel b&c, 8 threads:
  Real time             =    0.00 sec. (0.00 ticks)
  Sync time (average)   =    0.00 sec.
  Wait time (average)   =    0.00 sec.
                          ------------
Total (root+branch&cut) = 3600.05 sec. (2243606.29 ticks)
